<number of tasks>
29

<cycle time>
41

<task times>
1 7
2 19
3 15
4 5
5 12
6 10
7 8
8 16
9 2
10 6
11 21
12 10
13 9
14 4
15 14
16 7
17 14
18 17
19 10
20 16
21 1
22 9
23 25
24 14
25 14
26 2
27 10
28 7
29 20

<precedence relations>
1,3
1,25
2,6
2,26
3,4
4,5
5,8
5,13
6,8
7,9
7,12
7,25
8,11
8,16
9,10
10,14
10,15
11,17
12,15
13,17
14,16
15,19
16,18
17,20
18,22
19,21
20,23
21,22
22,23
23,24
23,28
24,29
25,29
26,27
27,29
28,29

<setup times forward>
1,2:4
1,6:6
1,7:4
1,9:4
1,10:6
1,12:4
1,14:2
1,15:6
1,19:3
1,21:7
1,26:4
1,27:6
2,1:4
2,3:4
2,4:4
2,5:2
2,6:2
2,10:2
2,13:2
2,14:2
2,15:2
2,19:1
2,21:3
2,25:4
3,2:4
3,6:6
3,7:4
3,9:4
3,10:6
3,12:4
3,14:2
3,15:6
3,19:3
3,21:7
3,26:4
3,27:6
4,2:4
4,5:2
4,6:6
4,7:4
4,9:4
4,10:6
4,12:4
4,14:2
4,15:6
4,19:3
4,21:7
4,26:4
4,27:6
5,2:2
5,6:4
5,7:2
5,9:2
5,10:4
5,12:2
5,15:4
5,19:1
5,21:5
5,25:2
5,26:2
5,27:4
6,1:6
6,3:6
6,4:6
6,5:4
6,7:2
6,8:4
6,9:2
6,12:2
6,13:4
6,14:4
6,19:3
6,21:1
6,25:6
6,26:2
7,1:4
7,3:4
7,4:4
7,5:2
7,6:2
7,8:2
7,11:1
7,13:2
7,17:3
7,25:4
7,27:2
8,7:2
8,9:2
8,10:4
8,11:1
8,12:2
8,15:4
8,16:1
8,19:1
8,21:5
8,25:2
8,26:2
8,27:4
9,1:4
9,3:4
9,4:4
9,5:2
9,6:2
9,8:2
9,10:2
9,11:1
9,13:2
9,17:3
9,25:4
9,27:2
10,1:6
10,2:2
10,3:6
10,4:6
10,5:4
10,8:4
10,11:3
10,12:2
10,13:4
10,14:4
10,17:1
10,20:2
10,25:6
10,26:2
11,7:1
11,9:1
11,10:3
11,12:1
11,13:1
11,14:1
11,15:3
11,17:4
11,18:4
11,21:4
11,22:4
11,25:3
11,26:1
11,27:3
12,1:4
12,3:4
12,4:4
12,5:2
12,6:2
12,8:2
12,10:2
12,11:1
12,13:2
12,14:2
12,15:2
12,16:1
12,17:3
12,18:3
12,25:4
12,27:2
13,2:2
13,6:4
13,7:2
13,9:2
13,10:4
13,11:1
13,12:2
13,15:4
13,16:1
13,17:5
13,18:5
13,19:1
13,21:5
13,22:5
13,25:2
13,26:2
13,27:4
14,1:2
14,2:2
14,3:2
14,4:2
14,6:4
14,11:1
14,12:2
14,15:4
14,16:1
14,17:5
14,19:1
14,20:2
14,21:5
14,25:2
14,26:2
14,27:4
15,1:6
15,2:2
15,3:6
15,4:6
15,5:4
15,8:4
15,11:3
15,13:4
15,14:4
15,16:3
15,17:1
15,18:1
15,19:3
15,20:2
15,25:6
15,26:2
16,12:1
16,13:1
16,15:3
16,17:4
16,18:4
16,20:1
16,21:4
16,25:3
16,26:1
16,27:3
17,7:3
17,9:3
17,10:1
17,12:3
17,14:5
17,15:1
17,16:4
17,19:4
17,20:3
17,25:7
17,26:3
17,27:1
18,11:4
18,12:3
18,13:5
18,15:1
18,19:4
18,20:3
18,25:7
18,26:3
18,27:1
19,1:3
19,2:1
19,3:3
19,4:3
19,5:1
19,6:3
19,8:1
19,13:1
19,14:1
19,17:4
19,18:4
19,20:1
19,21:4
19,25:3
19,26:1
19,27:3
20,10:2
20,14:2
20,15:2
20,16:1
20,18:3
20,19:1
20,21:3
20,22:3
20,25:4
20,27:2
21,1:7
21,2:3
21,3:7
21,4:7
21,5:5
21,6:1
21,8:5
21,11:4
21,13:5
21,14:5
21,16:4
21,20:3
21,25:7
21,26:3
21,27:1
22,11:4
22,13:5
22,20:3
22,23:3
22,25:7
22,26:3
22,27:1
23,24:4
23,25:4
23,27:2
23,28:4
24,25:8
24,26:4
24,27:2
25,2:4
25,5:2
25,6:6
25,8:2
25,9:4
25,10:6
25,11:3
25,12:4
25,13:2
25,14:2
25,15:6
25,16:3
25,17:7
25,18:7
25,19:3
25,20:4
25,21:7
25,22:7
25,23:4
25,24:8
25,26:4
25,27:6
25,28:8
25,29:8
26,1:4
26,3:4
26,4:4
26,5:2
26,6:2
26,8:2
26,10:2
26,11:1
26,13:2
26,14:2
26,15:2
26,16:1
26,17:3
26,18:3
26,19:1
26,21:3
26,22:3
26,24:4
26,25:4
26,27:2
26,28:4
27,1:6
27,3:6
27,4:6
27,5:4
27,7:2
27,8:4
27,9:2
27,11:3
27,12:2
27,13:4
27,14:4
27,16:3
27,17:1
27,18:1
27,19:3
27,20:2
27,21:1
27,22:1
27,23:2
27,24:2
27,25:6
27,28:2
27,29:2
28,25:8
28,26:4
28,27:2

<setup times backward>
1,2:4
1,6:6
1,7:4
1,9:4
1,10:6
1,12:4
1,14:2
1,15:6
1,19:3
1,21:7
1,26:4
1,27:6
2,10:2
2,15:2
2,21:3
3,2:4
3,6:6
3,7:4
3,9:4
3,10:6
3,12:4
3,14:2
3,15:6
3,19:3
3,21:7
3,26:4
3,27:6
4,2:4
4,6:6
4,7:4
4,9:4
4,10:6
4,12:4
4,14:2
4,15:6
4,19:3
4,21:7
4,26:4
4,27:6
5,2:2
5,6:4
5,7:2
5,9:2
5,10:4
5,12:2
5,15:4
5,19:1
5,21:5
5,26:2
5,27:4
6,21:1
7,6:2
7,17:3
7,27:2
8,2:2
8,6:4
8,7:2
8,9:2
8,10:4
8,12:2
8,15:4
8,19:1
8,21:5
8,26:2
8,27:4
9,6:2
9,17:3
9,27:2
10,17:1
11,2:1
11,6:3
11,7:1
11,9:1
11,10:3
11,12:1
11,15:3
11,18:4
11,21:4
11,22:4
11,26:1
11,27:3
12,6:2
12,10:2
12,17:3
12,18:3
12,27:2
13,2:2
13,6:4
13,7:2
13,9:2
13,10:4
13,11:1
13,12:2
13,15:4
13,16:1
13,18:5
13,19:1
13,21:5
13,22:5
13,26:2
13,27:4
14,2:2
14,6:4
14,7:2
14,9:2
14,10:4
14,11:1
14,12:2
14,15:4
14,17:5
14,19:1
14,20:2
14,21:5
14,26:2
14,27:4
15,17:1
15,18:1
16,2:1
16,6:3
16,7:1
16,9:1
16,10:3
16,12:1
16,15:3
16,17:4
16,20:1
16,21:4
16,26:1
16,27:3
19,2:1
19,6:3
19,7:1
19,9:1
19,10:3
19,12:1
19,15:3
19,17:4
19,18:4
19,20:1
19,26:1
19,27:3
20,6:2
20,10:2
20,15:2
20,17:3
20,18:3
20,21:3
20,22:3
20,27:2
23,6:2
23,10:2
23,15:2
23,17:3
23,18:3
23,21:3
23,22:3
23,27:2
25,2:4
25,5:2
25,6:6
25,7:4
25,8:2
25,9:4
25,10:6
25,11:3
25,12:4
25,13:2
25,14:2
25,15:6
25,16:3
25,17:7
25,18:7
25,19:3
25,20:4
25,21:7
25,22:7
25,23:4
25,24:8
25,26:4
25,27:6
25,28:8
26,6:2
26,10:2
26,15:2
26,17:3
26,18:3
26,21:3
26,22:3
26,24:4
26,28:4
27,17:1
27,18:1
27,21:1
27,22:1
27,24:2
27,28:2

<end>

<optimal SALBP-1 value>
8


<rand seed>
467321153

